InboundTrucks  = 20;
OutboundTrucks = 20;
InboundDoors   = 8;
OutboundDoors  = 8;
ReleaseTime    = [110,108,7,11,10,46,106,21,94,103,85,109,39,32,77,27,77,4,74,87];
UnloadTime     = [26,29,23,17,14,14,18,25,14,30,28,29,12,32,23,26,11,17,17,35];
LoadTime       = [6,18,5,9,10,14,19,13,7,19,14,7,8,18,7,7,17,15,9,18];
TransferTime   = [| 0,0,0,0,0,0,0,8,0,2,0,0,0,0,0,0,0,0,0,0 | 0,0,0,7,0,0,0,2,0,0,7,0,0,2,7,0,0,0,0,0 | 0,7,0,0,0,0,0,0,0,0,0,0,0,0,0,3,0,0,0,3 | 3,0,0,5,0,0,2,3,0,0,0,0,7,0,0,0,4,0,5,0 | 0,0,0,4,0,0,0,0,0,2,0,0,0,0,8,0,4,4,5,8 | 0,0,0,0,0,0,2,8,5,0,0,0,2,5,0,8,0,3,7,2 | 0,0,0,0,0,0,8,0,0,0,0,0,0,0,5,0,0,2,8,0 | 0,3,0,0,5,0,0,0,4,0,2,0,0,0,0,0,0,3,0,0 | 7,0,6,0,0,0,0,0,0,0,6,0,0,4,0,0,0,0,0,0 | 0,8,0,0,0,0,0,0,0,0,0,0,0,0,0,0,0,0,0,0 | 0,0,0,0,0,0,0,0,0,0,5,0,0,0,0,0,0,0,0,0 | 0,8,0,6,0,0,8,0,0,0,0,0,0,0,0,0,2,0,0,0 | 0,8,0,2,0,0,8,0,0,0,0,8,0,0,0,0,6,0,0,0 | 0,0,0,7,0,0,6,0,6,0,6,0,5,8,0,0,0,4,7,0 | 0,0,0,0,4,0,6,5,7,7,3,5,0,0,0,0,0,0,4,0 | 0,0,0,0,0,6,4,0,0,0,0,3,0,5,3,0,0,7,5,0 | 6,0,5,0,0,0,0,0,6,8,4,0,0,0,0,0,0,0,0,0 | 0,2,3,0,0,0,0,8,0,0,0,0,0,0,0,0,0,0,0,0 | 0,0,0,0,0,5,0,0,0,0,0,0,0,0,2,0,0,0,4,0 | 0,3,0,8,0,8,6,0,0,4,0,4,7,0,0,0,0,7,0,0 |];
